(set-logic QF_S)
(declare-fun x () String)
(declare-fun y () String)
(declare-fun z () Int)
(assert (not (= (str.replace "A" (str.replace "B" x "A") x) (str.replace "A" (str.replace x "B" "A") x))))
(check-sat)
